100
32
1
1
3
17
20
4
20
5
6
22
13
8
6
28
9
27
5
32
22
24
7
14
15
13
1
24
8
17
12
25
13
16
9
3
21
5
31
13
25
18
15
11
2
3
6
19
3
4
4
21
9
30
10
20
9
19
26
5
17
2
18
31
31
14
9
18
32
7
23
9
7
4
22
16
10
17
15
2
32
3
6
17
22
1
3
21
32
16
32
14
5
5
19
11
27
9
1
5
31
3